3
4
20
1 1.3 1.55 1.75 2.1
8 40 19 44 21 42 36 16 38 29 9 36 49 46 24 22 13 21 22 10 6 48 25 29 44 42 10 32 9 33 43 36 48 33 16 14 39 9 42 23 19 20 36 46 23 41 47 25 28 16 34 45 20 32 40 27 33 40 12 40 11 40 43 22 42 6 43 9 49 40 8 39 27 8 22 35 45 37 41 17 